;symbolic execution tree
(push)
(assert (le x0 soot.coffi.CONSTANT_Utf8_info))
(check-sat)
(push)
(assert (le x0 soot.coffi.CONSTANT_Utf8_info))
(check-sat)
(pop)
(push)
(assert (not (le x0 soot.coffi.CONSTANT_Utf8_info)))
(check-sat)
(pop)
(push)
(assert (le x0 soot.coffi.CONSTANT_Utf8_info))
(check-sat)
(push)
(assert (le x0 soot.coffi.CONSTANT_Utf8_info))
(check-sat)
(push)
(assert (le x0 soot.coffi.CONSTANT_Utf8_info))
(check-sat)
(pop)
(push)
(assert (not (le x0 soot.coffi.CONSTANT_Utf8_info)))
(check-sat)
(pop)
(pop)
(push)
(assert (not (le x0 soot.coffi.CONSTANT_Utf8_info)))
(check-sat)
(pop)
(push)
(assert (le x0 soot.coffi.CONSTANT_Utf8_info))
(check-sat)
(pop)
(push)
(assert (not (le x0 soot.coffi.CONSTANT_Utf8_info)))
(check-sat)
(pop)
(push)
(assert (not (le x0 soot.coffi.CONSTANT_Class_info)))
(check-sat)
(push)
(assert (not (le x0 soot.coffi.CONSTANT_Fieldref_info)))
(check-sat)
(pop)
(push)
(assert (le x0 soot.coffi.CONSTANT_Fieldref_info))
(check-sat)
(pop)
(pop)
(push)
(assert (le x0 soot.coffi.CONSTANT_Class_info))
(check-sat)
(pop)
(pop)
(push)
(assert (not (le x0 soot.coffi.CONSTANT_Utf8_info)))
(check-sat)
(pop)
(push)
(assert (le x0 soot.coffi.CONSTANT_Utf8_info))
(check-sat)
(pop)
(push)
(assert (not (le x0 soot.coffi.CONSTANT_Utf8_info)))
(check-sat)
(pop)
(push)
(assert (le x0 soot.coffi.CONSTANT_Utf8_info))
(check-sat)
(push)
(assert (le x0 soot.coffi.CONSTANT_Utf8_info))
(check-sat)
(pop)
(push)
(assert (not (le x0 soot.coffi.CONSTANT_Utf8_info)))
(check-sat)
(pop)
(pop)
(push)
(assert (not (le x0 soot.coffi.CONSTANT_Utf8_info)))
(check-sat)
(pop)
(push)
(assert (le x0 soot.coffi.CONSTANT_Utf8_info))
(check-sat)
(push)
(assert (le x0 soot.coffi.CONSTANT_Utf8_info))
(check-sat)
(pop)
(push)
(assert (not (le x0 soot.coffi.CONSTANT_Utf8_info)))
(check-sat)
(pop)
(push)
(assert (le x0 soot.coffi.CONSTANT_Utf8_info))
(check-sat)
(pop)
(push)
(assert (not (le x0 soot.coffi.CONSTANT_Utf8_info)))
(check-sat)
(pop)
(pop)
(push)
(assert (not (le x0 soot.coffi.CONSTANT_Utf8_info)))
(check-sat)
(pop)
(push)
(assert (le x0 soot.coffi.CONSTANT_Utf8_info))
(check-sat)
(push)
(assert (le x0 soot.coffi.CONSTANT_Utf8_info))
(check-sat)
(pop)
(push)
(assert (not (le x0 soot.coffi.CONSTANT_Utf8_info)))
(check-sat)
(pop)
(push)
(assert (le x0 soot.coffi.CONSTANT_Utf8_info))
(check-sat)
(push)
(assert (le x0 soot.coffi.CONSTANT_Utf8_info))
(check-sat)
(pop)
(push)
(assert (not (le x0 soot.coffi.CONSTANT_Utf8_info)))
(check-sat)
(pop)
(pop)
(push)
(assert (not (le x0 soot.coffi.CONSTANT_Utf8_info)))
(check-sat)
(pop)
(pop)
(push)
(assert (not (le x0 soot.coffi.CONSTANT_Utf8_info)))
(check-sat)
(pop)
(push)
(assert (not (le x0 soot.coffi.CONSTANT_Class_info)))
(check-sat)
(push)
(assert (not (le x0 soot.coffi.CONSTANT_Fieldref_info)))
(check-sat)
(pop)
(push)
(assert (le x0 soot.coffi.CONSTANT_Fieldref_info))
(check-sat)
(pop)
(pop)
(push)
(assert (le x0 soot.coffi.CONSTANT_Class_info))
(check-sat)
(pop)
(push)
(assert (not (le x0 soot.coffi.CONSTANT_Class_info)))
(check-sat)
(push)
(assert (not (le x0 soot.coffi.CONSTANT_Fieldref_info)))
(check-sat)
(pop)
(push)
(assert (le x0 soot.coffi.CONSTANT_Fieldref_info))
(check-sat)
(pop)
(push)
(assert (not (le x0 soot.coffi.CONSTANT_Fieldref_info)))
(check-sat)
(pop)
(push)
(assert (le x0 soot.coffi.CONSTANT_Fieldref_info))
(check-sat)
(pop)
(push)
(assert (not (le x0 soot.coffi.CONSTANT_Fieldref_info)))
(check-sat)
(pop)
(push)
(assert (le x0 soot.coffi.CONSTANT_Fieldref_info))
(check-sat)
(pop)
(push)
(assert (not (le x0 soot.coffi.CONSTANT_Fieldref_info)))
(check-sat)
(pop)
(push)
(assert (le x0 soot.coffi.CONSTANT_Fieldref_info))
(check-sat)
(pop)
(pop)
(push)
(assert (le x0 soot.coffi.CONSTANT_Class_info))
(check-sat)
(pop)
(push)
(assert (le x0 soot.coffi.CONSTANT_Utf8_info))
(check-sat)
(push)
(assert (le x0 soot.coffi.CONSTANT_Utf8_info))
(check-sat)
(push)
(assert (not (le x0 soot.coffi.CONSTANT_Class_info)))
(check-sat)
(pop)
(push)
(assert (le x0 soot.coffi.CONSTANT_Class_info))
(check-sat)
(pop)
(push)
(assert (le x0 soot.coffi.CONSTANT_Utf8_info))
(check-sat)
(pop)
(push)
(assert (not (le x0 soot.coffi.CONSTANT_Utf8_info)))
(check-sat)
(pop)
(pop)
(push)
(assert (not (le x0 soot.coffi.CONSTANT_Utf8_info)))
(check-sat)
(pop)
(push)
(assert (le x0 soot.coffi.CONSTANT_Utf8_info))
(check-sat)
(push)
(assert (le x0 soot.coffi.CONSTANT_Utf8_info))
(check-sat)
(pop)
(push)
(assert (not (le x0 soot.coffi.CONSTANT_Utf8_info)))
(check-sat)
(pop)
(pop)
(push)
(assert (not (le x0 soot.coffi.CONSTANT_Utf8_info)))
(check-sat)
(pop)
(push)
(assert (not (le x0 soot.coffi.CONSTANT_Class_info)))
(check-sat)
(push)
(assert (not (le x0 soot.coffi.CONSTANT_Fieldref_info)))
(check-sat)
(pop)
(push)
(assert (le x0 soot.coffi.CONSTANT_Fieldref_info))
(check-sat)
(pop)
(push)
(assert (not (le x0 soot.coffi.CONSTANT_Fieldref_info)))
(check-sat)
(pop)
(push)
(assert (le x0 soot.coffi.CONSTANT_Fieldref_info))
(check-sat)
(pop)
(push)
(assert (not (le x0 soot.coffi.CONSTANT_Fieldref_info)))
(check-sat)
(pop)
(push)
(assert (le x0 soot.coffi.CONSTANT_Fieldref_info))
(check-sat)
(pop)
(pop)
(push)
(assert (le x0 soot.coffi.CONSTANT_Class_info))
(check-sat)
(pop)
(push)
(assert (le x0 soot.coffi.CONSTANT_Utf8_info))
(check-sat)
(pop)
(push)
(assert (not (le x0 soot.coffi.CONSTANT_Utf8_info)))
(check-sat)
(pop)
(pop)
(push)
(assert (not (le x0 soot.coffi.CONSTANT_Utf8_info)))
(check-sat)
(pop)
(push)
(assert (not (le x0 soot.coffi.CONSTANT_Class_info)))
(check-sat)
(pop)
(push)
(assert (le x0 soot.coffi.CONSTANT_Class_info))
(check-sat)
(pop)
(push)
(assert (le x0 soot.coffi.CONSTANT_Utf8_info))
(check-sat)
(push)
(assert (le x0 soot.coffi.CONSTANT_Utf8_info))
(check-sat)
(pop)
(push)
(assert (not (le x0 soot.coffi.CONSTANT_Utf8_info)))
(check-sat)
(pop)
(push)
(assert (le x0 soot.coffi.CONSTANT_Utf8_info))
(check-sat)
(pop)
(push)
(assert (not (le x0 soot.coffi.CONSTANT_Utf8_info)))
(check-sat)
(pop)
(push)
(assert (not (le x0 soot.coffi.CONSTANT_Class_info)))
(check-sat)
(push)
(assert (not (le x0 soot.coffi.CONSTANT_Fieldref_info)))
(check-sat)
(pop)
(push)
(assert (le x0 soot.coffi.CONSTANT_Fieldref_info))
(check-sat)
(pop)
(pop)
(push)
(assert (le x0 soot.coffi.CONSTANT_Class_info))
(check-sat)
(pop)
(pop)
(push)
(assert (not (le x0 soot.coffi.CONSTANT_Utf8_info)))
(check-sat)
(pop)
(push)
(assert (not (le x0 soot.coffi.CONSTANT_Class_info)))
(check-sat)
(push)
(assert (not (le x0 soot.coffi.CONSTANT_Fieldref_info)))
(check-sat)
(push)
(assert (le x0 soot.coffi.CONSTANT_Methodref_info))
(check-sat)
(pop)
(push)
(assert (not (le x0 soot.coffi.CONSTANT_Methodref_info)))
(check-sat)
(pop)
(pop)
(push)
(assert (le x0 soot.coffi.CONSTANT_Fieldref_info))
(check-sat)
(pop)
(push)
(assert (not (le x0 soot.coffi.CONSTANT_Fieldref_info)))
(check-sat)
(pop)
(push)
(assert (le x0 soot.coffi.CONSTANT_Fieldref_info))
(check-sat)
(pop)
(push)
(assert (not (le x0 soot.coffi.CONSTANT_Fieldref_info)))
(check-sat)
(pop)
(push)
(assert (le x0 soot.coffi.CONSTANT_Fieldref_info))
(check-sat)
(pop)
(push)
(assert (not (le x0 soot.coffi.CONSTANT_Fieldref_info)))
(check-sat)
(pop)
(push)
(assert (le x0 soot.coffi.CONSTANT_Fieldref_info))
(check-sat)
(pop)
(push)
(assert (not (le x0 soot.coffi.CONSTANT_Fieldref_info)))
(check-sat)
(pop)
(push)
(assert (le x0 soot.coffi.CONSTANT_Fieldref_info))
(check-sat)
(pop)
(pop)
(push)
(assert (le x0 soot.coffi.CONSTANT_Class_info))
(check-sat)
(pop)
(push)
(assert (not (le x0 soot.coffi.CONSTANT_Class_info)))
(check-sat)
(push)
(assert (not (le x0 soot.coffi.CONSTANT_Fieldref_info)))
(check-sat)
(push)
(assert (not (le x0 soot.coffi.CONSTANT_Methodref_info)))
(check-sat)
(pop)
(push)
(assert (le x0 soot.coffi.CONSTANT_Methodref_info))
(check-sat)
(pop)
(pop)
(push)
(assert (le x0 soot.coffi.CONSTANT_Fieldref_info))
(check-sat)
(pop)
(pop)
(push)
(assert (le x0 soot.coffi.CONSTANT_Class_info))
(check-sat)
(pop)
(push)
(assert (le x0 soot.coffi.CONSTANT_Utf8_info))
(check-sat)
(push)
(assert (not (le x0 soot.coffi.CONSTANT_Class_info)))
(check-sat)
(pop)
(push)
(assert (le x0 soot.coffi.CONSTANT_Class_info))
(check-sat)
(pop)
(push)
(assert (le x0 soot.coffi.CONSTANT_Utf8_info))
(check-sat)
(push)
(assert (le x0 soot.coffi.CONSTANT_Utf8_info))
(check-sat)
(pop)
(push)
(assert (not (le x0 soot.coffi.CONSTANT_Utf8_info)))
(check-sat)
(pop)
(pop)
(push)
(assert (not (le x0 soot.coffi.CONSTANT_Utf8_info)))
(check-sat)
(pop)
(pop)
(push)
(assert (not (le x0 soot.coffi.CONSTANT_Utf8_info)))
(check-sat)
(pop)
(pop)
(push)
(assert (not (le x0 soot.coffi.CONSTANT_Utf8_info)))
(check-sat)
(push)
(assert (le x0 soot.coffi.CONSTANT_Utf8_info))
(check-sat)
(pop)
(push)
(assert (not (le x0 soot.coffi.CONSTANT_Utf8_info)))
(check-sat)
(push)
(assert (le x0 soot.coffi.CONSTANT_Utf8_info))
(check-sat)
(pop)
(push)
(assert (not (le x0 soot.coffi.CONSTANT_Utf8_info)))
(check-sat)
(pop)
(push)
(assert (le x0 soot.coffi.CONSTANT_Utf8_info))
(check-sat)
(pop)
(push)
(assert (not (le x0 soot.coffi.CONSTANT_Utf8_info)))
(check-sat)
(push)
(assert (not (le x0 soot.coffi.CONSTANT_Class_info)))
(check-sat)
(push)
(assert (not (le x0 soot.coffi.CONSTANT_Fieldref_info)))
(check-sat)
(pop)
(push)
(assert (le x0 soot.coffi.CONSTANT_Fieldref_info))
(check-sat)
(pop)
(push)
(assert (not (le x0 soot.coffi.CONSTANT_Fieldref_info)))
(check-sat)
(pop)
(push)
(assert (le x0 soot.coffi.CONSTANT_Fieldref_info))
(check-sat)
(pop)
(pop)
(push)
(assert (le x0 soot.coffi.CONSTANT_Class_info))
(check-sat)
(pop)
(push)
(assert (le x0 soot.coffi.CONSTANT_Utf8_info))
(check-sat)
(pop)
(push)
(assert (not (le x0 soot.coffi.CONSTANT_Utf8_info)))
(check-sat)
(pop)
(pop)
(push)
(assert (le x0 soot.coffi.CONSTANT_Utf8_info))
(check-sat)
(pop)
(push)
(assert (not (le x0 soot.coffi.CONSTANT_Utf8_info)))
(check-sat)
(push)
(assert (le x0 soot.coffi.CONSTANT_Utf8_info))
(check-sat)
(pop)
(push)
(assert (not (le x0 soot.coffi.CONSTANT_Utf8_info)))
(check-sat)
(push)
(assert (le x0 soot.coffi.CONSTANT_Utf8_info))
(check-sat)
(pop)
(push)
(assert (not (le x0 soot.coffi.CONSTANT_Utf8_info)))
(check-sat)
(pop)
(push)
(assert (le x0 soot.coffi.CONSTANT_Utf8_info))
(check-sat)
(pop)
(push)
(assert (not (le x0 soot.coffi.CONSTANT_Utf8_info)))
(check-sat)
(pop)
(push)
(assert (not (le x0 soot.coffi.CONSTANT_Class_info)))
(check-sat)
(pop)
(push)
(assert (le x0 soot.coffi.CONSTANT_Class_info))
(check-sat)
(pop)
(pop)
(pop)
(pop)
(push)
(assert (le x0 soot.coffi.CONSTANT_Utf8_info))
(check-sat)
(pop)
(push)
(assert (not (le x0 soot.coffi.CONSTANT_Utf8_info)))
(check-sat)
(push)
(assert (le x0 soot.coffi.CONSTANT_Utf8_info))
(check-sat)
(pop)
(push)
(assert (not (le x0 soot.coffi.CONSTANT_Utf8_info)))
(check-sat)
(push)
(assert (not (le x0 soot.coffi.CONSTANT_Class_info)))
(check-sat)
(pop)
(push)
(assert (le x0 soot.coffi.CONSTANT_Class_info))
(check-sat)
(push)
(assert (not (le x0 soot.coffi.CONSTANT_Fieldref_info)))
(check-sat)
(pop)
(push)
(assert (le x0 soot.coffi.CONSTANT_Fieldref_info))
(check-sat)
(pop)
(pop)
(pop)
(push)
(assert (not (le x0 soot.coffi.CONSTANT_Class_info)))
(check-sat)
(push)
(assert (not (le x0 soot.coffi.CONSTANT_Fieldref_info)))
(check-sat)
(pop)
(push)
(assert (le x0 soot.coffi.CONSTANT_Fieldref_info))
(check-sat)
(pop)
(push)
(assert (not (le x0 soot.coffi.CONSTANT_Fieldref_info)))
(check-sat)
(pop)
(push)
(assert (le x0 soot.coffi.CONSTANT_Fieldref_info))
(check-sat)
(pop)
(pop)
(push)
(assert (le x0 soot.coffi.CONSTANT_Class_info))
(check-sat)
(pop)
(pop)
(push)
(assert (le x0 soot.coffi.CONSTANT_Utf8_info))
(check-sat)
(pop)
(push)
(assert (not (le x0 soot.coffi.CONSTANT_Utf8_info)))
(check-sat)
(push)
(assert (le x0 soot.coffi.CONSTANT_Utf8_info))
(check-sat)
(pop)
(push)
(assert (not (le x0 soot.coffi.CONSTANT_Utf8_info)))
(check-sat)
(pop)
(pop)
(push)
(assert (not (le x0 soot.coffi.CONSTANT_Class_info)))
(check-sat)
(push)
(assert (not (le x0 soot.coffi.CONSTANT_Fieldref_info)))
(check-sat)
(push)
(assert (not (le x0 soot.coffi.CONSTANT_Methodref_info)))
(check-sat)
(pop)
(push)
(assert (le x0 soot.coffi.CONSTANT_Methodref_info))
(check-sat)
(pop)
(push)
(assert (le x0 soot.coffi.CONSTANT_Methodref_info))
(check-sat)
(pop)
(push)
(assert (not (le x0 soot.coffi.CONSTANT_Methodref_info)))
(check-sat)
(pop)
(push)
(assert (not (le x0 soot.coffi.CONSTANT_Methodref_info)))
(check-sat)
(pop)
(push)
(assert (le x0 soot.coffi.CONSTANT_Methodref_info))
(check-sat)
(pop)
(pop)
(push)
(assert (le x0 soot.coffi.CONSTANT_Fieldref_info))
(check-sat)
(pop)
(push)
(assert (not (le x0 soot.coffi.CONSTANT_Fieldref_info)))
(check-sat)
(pop)
(push)
(assert (le x0 soot.coffi.CONSTANT_Fieldref_info))
(check-sat)
(pop)
(push)
(assert (not (le x0 soot.coffi.CONSTANT_Fieldref_info)))
(check-sat)
(pop)
(push)
(assert (le x0 soot.coffi.CONSTANT_Fieldref_info))
(check-sat)
(pop)
(pop)
(push)
(assert (le x0 soot.coffi.CONSTANT_Class_info))
(check-sat)
(pop)
(push)
(assert (le x0 soot.coffi.CONSTANT_Utf8_info))
(check-sat)
(pop)
(push)
(assert (not (le x0 soot.coffi.CONSTANT_Utf8_info)))
(check-sat)
(push)
(assert (le x0 soot.coffi.CONSTANT_Utf8_info))
(check-sat)
(pop)
(push)
(assert (not (le x0 soot.coffi.CONSTANT_Utf8_info)))
(check-sat)
(push)
(assert (not (le x0 soot.coffi.CONSTANT_Class_info)))
(check-sat)
(pop)
(push)
(assert (le x0 soot.coffi.CONSTANT_Class_info))
(check-sat)
(push)
(assert (not (le x0 soot.coffi.CONSTANT_Fieldref_info)))
(check-sat)
(pop)
(push)
(assert (le x0 soot.coffi.CONSTANT_Fieldref_info))
(check-sat)
(pop)
(pop)
(pop)
(push)
(assert (le x0 soot.coffi.CONSTANT_Utf8_info))
(check-sat)
(pop)
(push)
(assert (not (le x0 soot.coffi.CONSTANT_Utf8_info)))
(check-sat)
(pop)
(push)
(assert (le x0 soot.coffi.CONSTANT_Utf8_info))
(check-sat)
(pop)
(push)
(assert (not (le x0 soot.coffi.CONSTANT_Utf8_info)))
(check-sat)
(pop)
(push)
(assert (not (le x0 soot.coffi.CONSTANT_Class_info)))
(check-sat)
(pop)
(push)
(assert (le x0 soot.coffi.CONSTANT_Class_info))
(check-sat)
(push)
(assert (not (le x0 soot.coffi.CONSTANT_Fieldref_info)))
(check-sat)
(pop)
(push)
(assert (le x0 soot.coffi.CONSTANT_Fieldref_info))
(check-sat)
(pop)
(pop)
(push)
(assert (le x0 soot.coffi.CONSTANT_Utf8_info))
(check-sat)
(pop)
(push)
(assert (not (le x0 soot.coffi.CONSTANT_Utf8_info)))
(check-sat)
(pop)
(pop)
(pop)
